5 5
4 89 1 21 3 3 0 48 2 10
4 87 0 81 1 42 2 99 3 89
4 66 3 91 1 46 0 9 2 49
0 4 1 60 3 90 4 96 2 29
2 86 0 47 4 77 3 87 1 63
-1
0 1 5
0 2 4 5
0 1 3 5
0 1 2 3 5
0 1 2 4 5
-2
106 173
170 382 610
94 295 391
5 65 182 374
136 160 303 367

444 9
15 21 6 13 3
16 7 12 1 24
20 8 14 4 19
17 11 23 2 9
5 10 22 0 18
